137
0 21 77 3 121 7 93 74 102 27 
94 88 114 133 95 13 29 19 84 134 
104 2 96 103 129 31 71 14 42 117 
34 55 60 33 6 1 26 111 17 69 
53 49 12 28 44 132 123 15 135 37 
122 63 78 32 67 66 120 106 20 124 
30 41 52 82 22 68 115 83 23 54 
107 18 24 40 100 75 126 105 61 130 
59 51 38 48 57 112 35 36 79 110 
98 9 128 127 50 47 97 99 108 113 
70 64 125 58 62 90 109 116 87 72 
118 119 81 10 16 5 131 25 85 11 
8 65 86 73 45 101 46 80 56 39 
4 92 89 136 91 76 43 
